(set-info :smt-lib-version 2.6)
(set-logic UFNRA)
(set-info :source |
Generated by: Geoff Sutcliffe
Generated on: 2026-03-11
Generator: TPTPWorld
Application: Benchmarking automated theorem provers
Time limit: 120.0

These benchmarks are translations from the TPTP Library (Thousands of
Problems for Theorem Provers), see http://www.cs.miami.edu/~tptp/

The TPTP is maintained by Geoff Sutcliffe, and he contributed this
selection of benchmarks to SMT-LIB.  They were exported from the
v9.2.1 realease of TPTP.
|)
(set-info :category "industrial")
(set-info :status "unknown")
; SZS status Success
(declare-sort $$unsorted 0)
(declare-fun tptp.exp (Real) Real)
(assert (= (tptp.exp 0.0) 1.0))
(assert (forall ((X Real) (Y Real)) (= (tptp.exp (+ X Y)) (* (tptp.exp X) (tptp.exp Y)))))
(declare-fun tptp.log (Real) Real)
(assert (= (tptp.log 1.0) 0.0))
(assert (forall ((X Real) (Y Real)) (=> (and (< 0.0 X) (< 0.0 Y)) (= (tptp.log (* X Y)) (+ (tptp.log X) (tptp.log Y))))))
(assert (forall ((X Real)) (= (tptp.log (tptp.exp X)) X)))
(assert (forall ((X Real)) (=> (< 0.0 X) (= (tptp.exp (tptp.log X)) X))))
(declare-fun tptp.log2 (Real) Real)
(assert (forall ((X Real)) (= (tptp.log2 X) (/ (tptp.log X) (tptp.log 2.0)))))
(declare-fun tptp.log10 (Real) Real)
(assert (forall ((X Real)) (= (tptp.log10 X) (/ (tptp.log X) (tptp.log 10.0)))))
(declare-fun tptp.pow (Real Real) Real)
(assert (forall ((X Real) (Y Real)) (=> (< 0.0 X) (= (tptp.pow X Y) (tptp.exp (* Y (tptp.log X)))))))
(assert (forall ((X Real) (Y Real)) (=> (< 0.0 X) (< 0.0 (tptp.pow X Y)))))
(assert (forall ((X Real) (Y Real) (Z Real)) (=> (< 0.0 Z) (= (tptp.pow Z (+ X Y)) (* (tptp.pow Z X) (tptp.pow Z Y))))))
(assert (forall ((X Real) (Y Real) (Z Real)) (=> (< 0.0 X) (= (tptp.pow (tptp.pow X Y) Z) (tptp.pow X (* Y Z))))))
(assert (forall ((X Real)) (=> (< 0.0 X) (= (tptp.pow X 0.0) 1.0))))
(assert (forall ((X Real)) (=> (< 0.0 X) (= (tptp.pow X 1.0) X))))
(assert (forall ((Y Real)) (= (tptp.pow 1.0 Y) 1.0)))
(declare-fun tptp.sqr (Real) Real)
(assert (forall ((X Real)) (= (tptp.sqr X) (* X X))))
(declare-fun tptp.sqrt (Real) Real)
(assert (forall ((X Real)) (=> (<= 0.0 X) (<= 0.0 (tptp.sqrt X)))))
(assert (forall ((X Real)) (=> (<= 0.0 X) (= (tptp.sqr (tptp.sqrt X)) X))))
(assert (forall ((X Real)) (=> (<= 0.0 X) (= (tptp.sqrt (* X X)) X))))
(assert (forall ((X Real) (Y Real)) (=> (and (<= 0.0 X) (<= 0.0 Y)) (= (tptp.sqrt (* X Y)) (* (tptp.sqrt X) (tptp.sqrt Y))))))
(assert (forall ((X Real) (Y Real)) (=> (and (<= 0.0 X) (<= X Y)) (<= (tptp.sqrt X) (tptp.sqrt Y)))))
(assert (forall ((X Real)) (=> (< 0.0 X) (= (tptp.pow X 2.0) (tptp.sqr X)))))
(assert (forall ((X Real)) (=> (< 0.0 X) (= (tptp.pow X (/ 1 2)) (tptp.sqrt X)))))
(assert (not (= (tptp.pow 2.0 2.0) 4.0)))
(check-sat)
